(set-logic QF_S)
(declare-fun var0 () String)
(assert (str.in.re var0 (re.++ (re.* (re.union (re.* (re.* (re.union (re.* (re.+ (re.+ (re.union (re.+ (str.to.re "00")) (re.+ (str.to.re "11")))))) (re.* (re.* (re.+ (re.union (re.union (str.to.re "222") (str.to.re "333")) (re.union (str.to.re "4") (str.to.re "5"))))))))) (re.* (re.union (re.* (re.* (re.union (re.union (re.union (re.+ (str.to.re "666")) (re.+ (str.to.re "77"))) (re.union (re.union (str.to.re "8") (str.to.re "99")) (re.union (str.to.re "a") (str.to.re "bb")))) (re.union (re.+ (re.union (str.to.re "cc") (str.to.re "dd"))) (re.+ (re.* (str.to.re "ee"))))))) (re.* (re.* (re.* (re.+ (re.* (re.union (str.to.re "ff") (str.to.re "ggg"))))))))))) (re.* (re.* (re.union (re.union (re.+ (re.+ (re.* (re.+ (re.union (re.union (str.to.re "hhh") (str.to.re "i")) (re.union (str.to.re "jj") (str.to.re "k"))))))) (re.+ (re.* (re.+ (re.union (re.union (re.union (str.to.re "lll") (str.to.re "m")) (re.union (str.to.re "nn") (str.to.re "oo"))) (re.union (re.union (str.to.re "p") (str.to.re "qq")) (re.union (str.to.re "r") (str.to.re "sss")))))))) (re.union (re.* (re.+ (re.+ (re.union (re.* (re.* (str.to.re "t"))) (re.* (re.* (str.to.re "uuu"))))))) (re.* (re.* (re.union (re.* (re.union (re.+ (str.to.re "v")) (re.+ (str.to.re "ww")))) (re.* (re.+ (re.union (str.to.re "xxx") (str.to.re "y"))))))))))))))
(assert (<= 15 (str.len var0)))
(check-sat)